
Welcome to IBM(R) ILOG(R) CPLEX(R) Interactive Optimizer 22.1.1.0
  with Simplex, Mixed Integer & Barrier Optimizers
5725-A06 5725-A29 5724-Y48 5724-Y49 5724-Y54 5724-Y55 5655-Y21
Copyright IBM Corp. 1988, 2022.  All Rights Reserved.

Type 'help' for a list of available commands.
Type 'help' followed by a command name for more
information on commands.

CPLEX> Selected objective sense:  MINIMIZE
Selected objective  name:  00000000
Selected RHS        name:  RHS1
Selected bound      name:  BOUND
Problem 'ee.mps' read.
Read time = 0.02 sec. (3.14 ticks)
CPLEX> New value for time limit in seconds: 7200
CPLEX> New value for parallel optimization mode: -1
CPLEX> New value for default parallel thread count: 40
CPLEX> New value for mixed integer optimality gap tolerance: 1e-13
CPLEX> Version identifier: 22.1.1.0 | 2022-11-28 | 9160aff4d
CPXPARAM_Threads                                 40
CPXPARAM_Parallel                                -1
CPXPARAM_TimeLimit                               7200
CPXPARAM_MIP_Tolerances_MIPGap                   1e-13
Found incumbent of value 0.000000 after 0.00 sec. (0.31 ticks)
Tried aggregator 2 times.
MIP Presolve eliminated 181 rows and 2745 columns.
MIP Presolve modified 5862 coefficients.
Aggregator did 713 substitutions.
Reduced MIP has 3624 rows, 7739 columns, and 28645 nonzeros.
Reduced MIP has 7739 binaries, 0 generals, 0 SOSs, and 0 indicators.
Presolve time = 0.07 sec. (68.56 ticks)
Probing time = 0.03 sec. (6.06 ticks)
Tried aggregator 1 time.
Detecting symmetries...
Reduced MIP has 3624 rows, 7739 columns, and 28645 nonzeros.
Reduced MIP has 7739 binaries, 0 generals, 0 SOSs, and 0 indicators.
Presolve time = 0.02 sec. (21.83 ticks)
Probing time = 0.02 sec. (5.87 ticks)
Clique table members: 18552.
MIP emphasis: balance optimality and feasibility.
MIP search method: dynamic search.
Parallel mode: opportunistic, using up to 40 threads.
Root relaxation solution time = 0.09 sec. (68.86 ticks)

        Nodes                                         Cuts/
   Node  Left     Objective  IInf  Best Integer    Best Bound    ItCnt     Gap

*     0+    0                            0.0000  -1.31000e+13              --- 
*     0+    0                      -3.18000e+12  -1.31000e+13           311.95%
*     0+    0                      -4.40000e+12  -1.31000e+13           197.73%
*     0+    0                      -5.50000e+12  -1.31000e+13           138.18%
*     0+    0                      -7.59000e+12  -1.31000e+13            72.60%
      0     0  -1.30900e+13    94  -7.59000e+12  -1.30900e+13     1737   72.46%
*     0+    0                      -1.30900e+13  -1.30900e+13             0.00%
      0     0  -1.30900e+13   132  -1.30900e+13      Cuts: 68     2049    0.00%
*     0+    0                      -1.30900e+13  -1.30900e+13             0.00%
*     0+    0                      -1.30900e+13  -1.30900e+13             0.00%
      0     0  -1.30900e+13   175  -1.30900e+13      Cuts: 48     2336    0.00%
*     0+    0                      -1.30900e+13  -1.30900e+13             0.00%
*     0+    0                      -1.30900e+13  -1.30900e+13             0.00%

Repeating presolve.
Tried aggregator 3 times.
MIP Presolve eliminated 1564 rows and 3585 columns.
MIP Presolve added 40 rows and 0 columns.
MIP Presolve modified 114 coefficients.
Aggregator did 385 substitutions.
Reduced MIP has 1715 rows, 3742 columns, and 13138 nonzeros.
Reduced MIP has 3742 binaries, 0 generals, 0 SOSs, and 0 indicators.
Presolve time = 0.06 sec. (60.29 ticks)
Probing fixed 64 vars, tightened 0 bounds.
Probing time = 0.04 sec. (14.07 ticks)
Tried aggregator 2 times.
MIP Presolve eliminated 57 rows and 84 columns.
Aggregator did 25 substitutions.
Reduced MIP has 1633 rows, 3631 columns, and 12688 nonzeros.
Reduced MIP has 3631 binaries, 0 generals, 0 SOSs, and 0 indicators.
Presolve time = 0.02 sec. (20.58 ticks)
Probing time = 0.03 sec. (12.48 ticks)
Tried aggregator 1 time.
Detecting symmetries...
MIP Presolve eliminated 8 rows and 6 columns.
Reduced MIP has 1625 rows, 3625 columns, and 12664 nonzeros.
Reduced MIP has 3625 binaries, 0 generals, 0 SOSs, and 0 indicators.
Presolve time = 0.02 sec. (14.08 ticks)
Represolve time = 0.20 sec. (145.49 ticks)
Probing time = 0.03 sec. (6.79 ticks)
Clique table members: 8718.
MIP emphasis: balance optimality and feasibility.
MIP search method: dynamic search.
Parallel mode: opportunistic, using up to 40 threads.
Root relaxation solution time = 0.07 sec. (32.83 ticks)

        Nodes                                         Cuts/
   Node  Left     Objective  IInf  Best Integer    Best Bound    ItCnt     Gap

*     0+    0                      -1.30900e+13  -1.30900e+13             0.00%
      0     0  -1.30900e+13   107  -1.30900e+13  -1.30900e+13     3464    0.00%
      0     0  -1.30900e+13   104  -1.30900e+13      Cuts: 80     3589    0.00%
      0     0  -1.30900e+13    59  -1.30900e+13      Cuts: 68     3720    0.00%
      0     0  -1.30900e+13    59  -1.30900e+13      Cuts: 39     3735    0.00%
      0     0  -1.30900e+13    54  -1.30900e+13      Cuts: 20     3891    0.00%
      0     0  -1.30900e+13    60  -1.30900e+13      Cuts: 16     3905    0.00%
*     0+    0                      -1.30900e+13  -1.30900e+13             0.00%
*     0+    0                      -1.30900e+13  -1.30900e+13             0.00%

Repeating presolve.
Tried aggregator 2 times.
MIP Presolve eliminated 1042 rows and 2475 columns.
MIP Presolve modified 7 coefficients.
Aggregator did 111 substitutions.
Reduced MIP has 472 rows, 1022 columns, and 3437 nonzeros.
Reduced MIP has 1022 binaries, 0 generals, 0 SOSs, and 0 indicators.
Presolve time = 0.01 sec. (8.09 ticks)
Probing fixed 3 vars, tightened 0 bounds.
Probing time = 0.00 sec. (2.22 ticks)
Tried aggregator 1 time.
Detecting symmetries...
MIP Presolve eliminated 0 rows and 3 columns.
Reduced MIP has 472 rows, 1019 columns, and 3428 nonzeros.
Reduced MIP has 1019 binaries, 0 generals, 0 SOSs, and 0 indicators.
Presolve time = 0.00 sec. (2.33 ticks)
Represolve time = 0.03 sec. (24.58 ticks)
Probing time = 0.00 sec. (2.13 ticks)
Clique table members: 2439.
MIP emphasis: balance optimality and feasibility.
MIP search method: dynamic search.
Parallel mode: opportunistic, using up to 40 threads.
Root relaxation solution time = 0.03 sec. (16.37 ticks)

        Nodes                                         Cuts/
   Node  Left     Objective  IInf  Best Integer    Best Bound    ItCnt     Gap

*     0+    0                      -1.30900e+13  -1.30900e+13             0.00%
      0     0  -1.30900e+13    41  -1.30900e+13  -1.30900e+13     4598    0.00%
      0     0  -1.30900e+13    32  -1.30900e+13      Cuts: 36     4656    0.00%
      0     0  -1.30900e+13    96  -1.30900e+13      Cuts: 24     4757    0.00%
      0     0  -1.30900e+13   161  -1.30900e+13      Cuts: 29     4805    0.00%

Repeating presolve.
Tried aggregator 2 times.
MIP Presolve eliminated 107 rows and 337 columns.
MIP Presolve modified 1 coefficients.
Aggregator did 50 substitutions.
Reduced MIP has 315 rows, 624 columns, and 2092 nonzeros.
Reduced MIP has 624 binaries, 0 generals, 0 SOSs, and 0 indicators.
Presolve time = 0.00 sec. (3.55 ticks)
Probing fixed 4 vars, tightened 0 bounds.
Probing time = 0.00 sec. (0.85 ticks)
Tried aggregator 2 times.
MIP Presolve eliminated 14 rows and 16 columns.
MIP Presolve modified 3 coefficients.
Aggregator did 3 substitutions.
Reduced MIP has 298 rows, 603 columns, and 2005 nonzeros.
Reduced MIP has 603 binaries, 0 generals, 0 SOSs, and 0 indicators.
Presolve time = 0.00 sec. (3.01 ticks)
Probing time = 0.00 sec. (0.73 ticks)
Tried aggregator 1 time.
Detecting symmetries...
MIP Presolve eliminated 5 rows and 4 columns.
Reduced MIP has 293 rows, 598 columns, and 1979 nonzeros.
Reduced MIP has 598 binaries, 0 generals, 0 SOSs, and 0 indicators.
Presolve time = 0.00 sec. (1.92 ticks)
Represolve time = 0.03 sec. (23.59 ticks)
Probing time = 0.00 sec. (0.73 ticks)
Clique table members: 1424.
MIP emphasis: balance optimality and feasibility.
MIP search method: dynamic search.
Parallel mode: opportunistic, using up to 40 threads.
Root relaxation solution time = 0.01 sec. (8.57 ticks)

        Nodes                                         Cuts/
   Node  Left     Objective  IInf  Best Integer    Best Bound    ItCnt     Gap

*     0+    0                      -1.30900e+13  -1.30900e+13             0.00%
      0     0  -1.30900e+13   136  -1.30900e+13  -1.30900e+13     5256    0.00%
      0     0  -1.30900e+13    71  -1.30900e+13      Cuts: 88     5371    0.00%
      0     0  -1.30900e+13   138  -1.30900e+13      Cuts: 37     5436    0.00%
      0     0  -1.30900e+13    56  -1.30900e+13      Cuts: 61     5466    0.00%
      0     0  -1.30900e+13    37  -1.30900e+13      Cuts: 25     5482    0.00%
      0     0  -1.30900e+13    60  -1.30900e+13       Cuts: 7     5503    0.00%
      0     2  -1.30900e+13    58  -1.30900e+13  -1.30900e+13     5503    0.00%
Elapsed time = 1.99 sec. (1543.49 ticks, tree = 0.02 MB, solutions = 13)

GUB cover cuts applied:  3
Clique cuts applied:  43
Cover cuts applied:  39
Mixed integer rounding cuts applied:  37
Zero-half cuts applied:  21
Lift and project cuts applied:  9
Gomory fractional cuts applied:  8

Root node processing (before b&c):
  Real time             =    1.87 sec. (1544.21 ticks)
Parallel b&c, 40 threads:
  Real time             =    0.17 sec. (2.66 ticks)
  Sync time (average)   =    0.03 sec.
  Wait time (average)   =    0.00 sec.
                          ------------
Total (root+branch&cut) =    2.04 sec. (1546.87 ticks)

Solution pool: 13 solutions saved.

MIP - Integer optimal solution:  Objective = -1.3089999590e+13
Solution time =    2.08 sec.  Iterations = 5542  Nodes = 9
Deterministic time = 1546.90 ticks  (745.42 ticks/sec)

CPLEX> Solution 'p14' written to file 'ee.sol'.
CPLEX> 